146 9
1 2 1 21 2 21
1 2 1 42 2 42
2 2 1 48 2 48 3 5 70 6 70 7 70
2 2 3 148 4 148 1 9 120
1 1 8 96
1 1 8 48
1 1 8 288
1 1 8 192
1 1 8 52
1 1 8 104
1 1 8 52
2 2 1 220 2 220 1 9 485
1 2 1 60 2 60
2 2 3 72 4 72 1 9 113
1 2 1 174 2 174
2 2 1 30 2 30 2 3 30 4 30
2 2 3 30 4 30 3 5 35 6 35 7 35
1 1 8 80
1 2 3 60 4 60
1 2 3 60 4 60
1 2 3 60 4 60
2 2 1 30 2 30 3 5 70 6 70 7 70
1 2 3 80 4 80
1 2 3 80 4 80
1 2 3 80 4 80
1 2 3 80 4 80
1 2 3 80 4 80
1 2 3 80 4 80
1 2 3 80 4 80
1 2 3 40 4 40
1 2 3 40 4 40
2 2 3 48 4 48 3 5 34 6 34 7 34
1 1 8 72
1 1 8 415
3 2 1 11 2 11 3 5 40 6 40 7 40 1 9 54
2 2 3 42 4 42 3 5 44 6 44 7 44
1 2 3 43 4 43
2 2 3 84 4 84 3 5 84 6 84 7 84
1 2 3 86 4 86
1 2 3 86 4 86
1 2 3 88 4 88
3 2 3 44 4 44 3 5 44 6 44 7 44 1 9 33
3 2 3 44 4 44 3 5 44 6 44 7 44 1 9 30
3 2 3 44 4 44 3 5 44 6 44 7 44 1 9 52
3 2 3 88 4 88 3 5 88 6 88 7 88 1 9 104
2 2 3 44 4 44 1 9 61
2 2 3 50 4 50 3 5 41 6 41 7 41
1 2 3 51 4 51
1 2 3 204 4 204
1 1 8 1440
2 2 3 51 4 51 3 5 42 6 42 7 42
2 2 3 47 4 47 3 5 42 6 42 7 42
1 2 3 204 4 204
1 2 3 212 4 212
2 2 3 110 4 110 3 5 76 6 76 7 76
2 2 3 342 4 342 3 5 228 6 228 7 228
1 2 3 108 4 108
1 2 3 330 4 330
2 2 3 110 4 110 3 5 78 6 78 7 78
3 2 3 88 4 88 3 5 78 6 78 7 78 1 9 111
2 2 3 204 4 204 1 8 1440
1 2 1 551 2 551
1 1 8 184
1 1 8 184
1 2 3 108 4 108
1 2 3 108 4 108
3 2 3 92 4 92 3 5 80 6 80 7 80 1 9 121
3 2 3 92 4 92 3 5 80 6 80 7 80 1 9 135
1 1 8 184
1 1 8 368
2 2 3 110 4 110 3 5 76 6 76 7 76
2 2 3 342 4 342 3 5 228 6 228 7 228
1 2 3 108 4 108
1 2 3 330 4 330
1 2 3 220 4 220
1 2 3 110 4 110
2 2 3 204 4 204 3 5 163 6 163 7 163
1 2 1 551 2 551
2 2 3 92 4 92 3 5 80 6 80 7 80
3 2 3 92 4 92 3 5 80 6 80 7 80 1 9 121
1 1 8 368
1 1 8 368
1 2 3 98 4 98
3 2 3 196 4 196 3 5 172 6 172 7 172 1 9 216
3 2 3 196 4 196 3 5 172 6 172 7 172 1 9 217
1 1 8 384
2 2 1 240 2 240 1 9 526
1 2 1 256 2 256
1 1 8 384
2 2 1 256 2 256 1 9 390
2 2 1 280 2 280 1 9 394
1 1 8 48
1 2 3 96 4 96
2 2 3 49 4 49 3 5 43 6 43 7 43
2 2 3 49 4 49 3 5 43 6 43 7 43
1 2 3 46 4 46
1 2 3 92 4 92
1 1 8 96
2 2 3 90 4 90 1 9 97
3 2 3 90 4 90 3 5 86 6 86 7 86 1 9 99
3 2 3 84 4 84 3 5 90 6 90 7 90 1 9 118
3 2 3 168 4 168 3 5 180 6 180 7 180 1 9 222
1 2 3 264 4 264
3 2 3 43 4 43 3 5 45 6 45 7 45 1 9 54
3 2 3 43 4 43 3 5 45 6 45 7 45 1 9 53
3 2 3 43 4 43 3 5 45 6 45 7 45 1 9 52
2 2 3 46 4 46 1 9 58
2 1 8 96 1 9 95
2 2 3 90 4 90 1 9 130
2 1 8 96 1 9 110
1 2 1 180 2 180
3 2 3 88 4 88 3 5 84 6 84 7 84 1 9 109
3 2 3 45 4 45 3 5 42 6 42 7 42 1 9 60
2 2 3 43 4 43 1 9 62
3 2 3 44 4 44 3 5 44 6 44 7 44 1 9 52
2 2 3 42 4 42 3 5 42 6 42 7 42
2 2 3 90 4 90 3 5 84 6 84 7 84
1 2 1 374 2 374
1 2 3 360 4 360
2 2 3 1504 4 1504 3 5 1344 6 1344 7 1344
1 2 3 416 4 416
2 2 3 90 4 90 3 5 84 6 84 7 84
2 2 1 60 2 60 1 9 58
1 2 1 66 2 66
1 2 1 66 2 66
2 2 1 122 2 122 1 9 104
1 2 3 94 4 94
3 2 3 46 4 46 3 5 43 6 43 7 43 1 9 53
1 2 3 92 4 92
1 1 8 84
1 1 8 84
1 1 8 168
1 1 8 84
1 1 8 84
1 2 3 46 4 46
2 2 3 176 4 176 3 5 168 6 168 7 168
2 2 3 352 4 352 3 5 336 6 336 7 336
2 2 3 184 4 184 3 5 168 6 168 7 168
2 2 3 552 4 552 3 5 504 6 504 7 504
1 2 3 720 4 720
1 2 3 1080 4 1080
1 2 3 360 4 360
1 2 3 94 4 94
1 2 3 282 4 282
2 2 3 44 4 44 1 9 58
3 2 3 94 4 94 3 5 84 6 84 7 84 1 9 104